p cnf 175 1455
1 2 3 4 5 0
6 7 8 9 10 0
11 12 13 14 15 0
16 17 18 19 20 0
21 22 23 24 25 0
26 27 28 29 30 0
31 32 33 34 35 0
36 37 38 39 40 0
41 42 43 44 45 0
46 47 48 49 50 0
51 52 53 54 55 0
56 57 58 59 60 0
61 62 63 64 65 0
66 67 68 69 70 0
71 72 73 74 75 0
76 77 78 79 80 0
81 82 83 84 85 0
86 87 88 89 90 0
91 92 93 94 95 0
96 97 98 99 100 0
101 102 103 104 105 0
106 107 108 109 110 0
111 112 113 114 115 0
116 117 118 119 120 0
121 122 123 124 125 0
126 127 128 129 130 0
131 132 133 134 135 0
136 137 138 139 140 0
141 142 143 144 145 0
146 147 148 149 150 0
151 152 153 154 155 0
156 157 158 159 160 0
161 162 163 164 165 0
166 167 168 169 170 0
171 172 173 174 175 0
-1 -2 0
-1 -3 0
-1 -4 0
-1 -5 0
-2 -3 0
-2 -4 0
-2 -5 0
-3 -4 0
-3 -5 0
-4 -5 0
-6 -7 0
-6 -8 0
-6 -9 0
-6 -10 0
-7 -8 0
-7 -9 0
-7 -10 0
-8 -9 0
-8 -10 0
-9 -10 0
-11 -12 0
-11 -13 0
-11 -14 0
-11 -15 0
-12 -13 0
-12 -14 0
-12 -15 0
-13 -14 0
-13 -15 0
-14 -15 0
-16 -17 0
-16 -18 0
-16 -19 0
-16 -20 0
-17 -18 0
-17 -19 0
-17 -20 0
-18 -19 0
-18 -20 0
-19 -20 0
-21 -22 0
-21 -23 0
-21 -24 0
-21 -25 0
-22 -23 0
-22 -24 0
-22 -25 0
-23 -24 0
-23 -25 0
-24 -25 0
-26 -27 0
-26 -28 0
-26 -29 0
-26 -30 0
-27 -28 0
-27 -29 0
-27 -30 0
-28 -29 0
-28 -30 0
-29 -30 0
-31 -32 0
-31 -33 0
-31 -34 0
-31 -35 0
-32 -33 0
-32 -34 0
-32 -35 0
-33 -34 0
-33 -35 0
-34 -35 0
-36 -37 0
-36 -38 0
-36 -39 0
-36 -40 0
-37 -38 0
-37 -39 0
-37 -40 0
-38 -39 0
-38 -40 0
-39 -40 0
-41 -42 0
-41 -43 0
-41 -44 0
-41 -45 0
-42 -43 0
-42 -44 0
-42 -45 0
-43 -44 0
-43 -45 0
-44 -45 0
-46 -47 0
-46 -48 0
-46 -49 0
-46 -50 0
-47 -48 0
-47 -49 0
-47 -50 0
-48 -49 0
-48 -50 0
-49 -50 0
-51 -52 0
-51 -53 0
-51 -54 0
-51 -55 0
-52 -53 0
-52 -54 0
-52 -55 0
-53 -54 0
-53 -55 0
-54 -55 0
-56 -57 0
-56 -58 0
-56 -59 0
-56 -60 0
-57 -58 0
-57 -59 0
-57 -60 0
-58 -59 0
-58 -60 0
-59 -60 0
-61 -62 0
-61 -63 0
-61 -64 0
-61 -65 0
-62 -63 0
-62 -64 0
-62 -65 0
-63 -64 0
-63 -65 0
-64 -65 0
-66 -67 0
-66 -68 0
-66 -69 0
-66 -70 0
-67 -68 0
-67 -69 0
-67 -70 0
-68 -69 0
-68 -70 0
-69 -70 0
-71 -72 0
-71 -73 0
-71 -74 0
-71 -75 0
-72 -73 0
-72 -74 0
-72 -75 0
-73 -74 0
-73 -75 0
-74 -75 0
-76 -77 0
-76 -78 0
-76 -79 0
-76 -80 0
-77 -78 0
-77 -79 0
-77 -80 0
-78 -79 0
-78 -80 0
-79 -80 0
-81 -82 0
-81 -83 0
-81 -84 0
-81 -85 0
-82 -83 0
-82 -84 0
-82 -85 0
-83 -84 0
-83 -85 0
-84 -85 0
-86 -87 0
-86 -88 0
-86 -89 0
-86 -90 0
-87 -88 0
-87 -89 0
-87 -90 0
-88 -89 0
-88 -90 0
-89 -90 0
-91 -92 0
-91 -93 0
-91 -94 0
-91 -95 0
-92 -93 0
-92 -94 0
-92 -95 0
-93 -94 0
-93 -95 0
-94 -95 0
-96 -97 0
-96 -98 0
-96 -99 0
-96 -100 0
-97 -98 0
-97 -99 0
-97 -100 0
-98 -99 0
-98 -100 0
-99 -100 0
-101 -102 0
-101 -103 0
-101 -104 0
-101 -105 0
-102 -103 0
-102 -104 0
-102 -105 0
-103 -104 0
-103 -105 0
-104 -105 0
-106 -107 0
-106 -108 0
-106 -109 0
-106 -110 0
-107 -108 0
-107 -109 0
-107 -110 0
-108 -109 0
-108 -110 0
-109 -110 0
-111 -112 0
-111 -113 0
-111 -114 0
-111 -115 0
-112 -113 0
-112 -114 0
-112 -115 0
-113 -114 0
-113 -115 0
-114 -115 0
-116 -117 0
-116 -118 0
-116 -119 0
-116 -120 0
-117 -118 0
-117 -119 0
-117 -120 0
-118 -119 0
-118 -120 0
-119 -120 0
-121 -122 0
-121 -123 0
-121 -124 0
-121 -125 0
-122 -123 0
-122 -124 0
-122 -125 0
-123 -124 0
-123 -125 0
-124 -125 0
-126 -127 0
-126 -128 0
-126 -129 0
-126 -130 0
-127 -128 0
-127 -129 0
-127 -130 0
-128 -129 0
-128 -130 0
-129 -130 0
-131 -132 0
-131 -133 0
-131 -134 0
-131 -135 0
-132 -133 0
-132 -134 0
-132 -135 0
-133 -134 0
-133 -135 0
-134 -135 0
-136 -137 0
-136 -138 0
-136 -139 0
-136 -140 0
-137 -138 0
-137 -139 0
-137 -140 0
-138 -139 0
-138 -140 0
-139 -140 0
-141 -142 0
-141 -143 0
-141 -144 0
-141 -145 0
-142 -143 0
-142 -144 0
-142 -145 0
-143 -144 0
-143 -145 0
-144 -145 0
-146 -147 0
-146 -148 0
-146 -149 0
-146 -150 0
-147 -148 0
-147 -149 0
-147 -150 0
-148 -149 0
-148 -150 0
-149 -150 0
-151 -152 0
-151 -153 0
-151 -154 0
-151 -155 0
-152 -153 0
-152 -154 0
-152 -155 0
-153 -154 0
-153 -155 0
-154 -155 0
-156 -157 0
-156 -158 0
-156 -159 0
-156 -160 0
-157 -158 0
-157 -159 0
-157 -160 0
-158 -159 0
-158 -160 0
-159 -160 0
-161 -162 0
-161 -163 0
-161 -164 0
-161 -165 0
-162 -163 0
-162 -164 0
-162 -165 0
-163 -164 0
-163 -165 0
-164 -165 0
-166 -167 0
-166 -168 0
-166 -169 0
-166 -170 0
-167 -168 0
-167 -169 0
-167 -170 0
-168 -169 0
-168 -170 0
-169 -170 0
-171 -172 0
-171 -173 0
-171 -174 0
-171 -175 0
-172 -173 0
-172 -174 0
-172 -175 0
-173 -174 0
-173 -175 0
-174 -175 0
-5 -6 0
-5 -10 0
-3 -14 0
-5 -12 0
-3 -32 0
-4 -34 0
-5 -39 0
-2 -36 0
-2 -43 0
-2 -41 0
-5 -47 0
-3 -49 0
-2 -52 0
-3 -55 0
-2 -57 0
-3 -58 0
-4 -64 0
-5 -62 0
-2 -66 0
-2 -70 0
-1 -71 0
-2 -74 0
-5 -77 0
-1 -77 0
-5 -81 0
-5 -83 0
-3 -86 0
-1 -88 0
-1 -93 0
-5 -94 0
-3 -99 0
-1 -99 0
-4 -102 0
-3 -101 0
-3 -107 0
-3 -106 0
-4 -114 0
-5 -112 0
-2 -118 0
-1 -120 0
-1 -124 0
-4 -125 0
-3 -130 0
-4 -128 0
-3 -131 0
-5 -131 0
-4 -140 0
-1 -140 0
-4 -144 0
-1 -144 0
-2 -148 0
-5 -147 0
-1 -155 0
-4 -155 0
-4 -160 0
-5 -157 0
-1 -161 0
-3 -163 0
-3 -168 0
-5 -170 0
-2 -171 0
-5 -172 0
-6 -15 0
-7 -13 0
-9 -17 0
-8 -16 0
-9 -32 0
-6 -34 0
-10 -36 0
-9 -38 0
-8 -43 0
-6 -41 0
-10 -51 0
-9 -55 0
-10 -59 0
-8 -57 0
-6 -62 0
-7 -63 0
-9 -72 0
-9 -75 0
-6 -80 0
-6 -78 0
-7 -85 0
-8 -84 0
-10 -86 0
-7 -88 0
-9 -94 0
-9 -95 0
-7 -99 0
-9 -100 0
-9 -101 0
-10 -103 0
-6 -107 0
-10 -107 0
-10 -112 0
-8 -111 0
-6 -117 0
-10 -119 0
-9 -122 0
-10 -122 0
-8 -128 0
-9 -129 0
-9 -134 0
-7 -131 0
-6 -138 0
-9 -138 0
-6 -144 0
-6 -143 0
-6 -147 0
-8 -149 0
-9 -151 0
-10 -155 0
-8 -156 0
-9 -158 0
-9 -161 0
-7 -161 0
-10 -170 0
-10 -166 0
-10 -174 0
-7 -171 0
-14 -17 0
-11 -20 0
-12 -22 0
-11 -21 0
-15 -34 0
-11 -31 0
-11 -39 0
-12 -37 0
-14 -41 0
-11 -43 0
-11 -48 0
-14 -49 0
-14 -52 0
-12 -53 0
-11 -58 0
-12 -58 0
-11 -62 0
-15 -65 0
-13 -68 0
-12 -70 0
-13 -72 0
-11 -72 0
-15 -76 0
-15 -77 0
-15 -84 0
-15 -85 0
-11 -88 0
-14 -90 0
-13 -92 0
-12 -91 0
-14 -99 0
-13 -99 0
-14 -103 0
-14 -101 0
-13 -107 0
-11 -107 0
-11 -114 0
-14 -112 0
-13 -117 0
-14 -120 0
-14 -124 0
-14 -121 0
-15 -127 0
-12 -130 0
-13 -133 0
-12 -134 0
-11 -139 0
-12 -140 0
-11 -142 0
-12 -141 0
-11 -150 0
-13 -147 0
-14 -154 0
-11 -155 0
-14 -163 0
-15 -163 0
-13 -167 0
-13 -168 0
-17 -23 0
-17 -22 0
-20 -27 0
-16 -28 0
-16 -32 0
-16 -33 0
-20 -37 0
-20 -38 0
-19 -47 0
-20 -50 0
-17 -53 0
-20 -54 0
-16 -60 0
-18 -59 0
-19 -63 0
-19 -62 0
-20 -67 0
-17 -68 0
-17 -79 0
-18 -78 0
-19 -81 0
-20 -85 0
-16 -86 0
-18 -89 0
-17 -95 0
-18 -91 0
-18 -100 0
-20 -97 0
-16 -101 0
-17 -102 0
-18 -110 0
-19 -110 0
-20 -115 0
-18 -111 0
-18 -120 0
-16 -118 0
-16 -121 0
-19 -122 0
-19 -130 0
-17 -128 0
-18 -133 0
-17 -133 0
-16 -137 0
-19 -140 0
-18 -145 0
-16 -142 0
-20 -148 0
-19 -149 0
-19 -157 0
-16 -158 0
-17 -165 0
-18 -162 0
-17 -170 0
-19 -170 0
-20 -171 0
-17 -172 0
-22 -29 0
-21 -27 0
-22 -32 0
-22 -35 0
-23 -40 0
-22 -38 0
-23 -45 0
-22 -44 0
-25 -46 0
-25 -50 0
-21 -55 0
-25 -55 0
-24 -56 0
-25 -58 0
-22 -64 0
-23 -65 0
-21 -69 0
-23 -67 0
-22 -71 0
-24 -75 0
-25 -79 0
-23 -80 0
-22 -81 0
-21 -85 0
-22 -89 0
-25 -90 0
-21 -91 0
-25 -92 0
-21 -103 0
-25 -103 0
-23 -109 0
-21 -106 0
-25 -116 0
-21 -117 0
-25 -125 0
-24 -122 0
-23 -132 0
-23 -135 0
-22 -139 0
-25 -139 0
-24 -141 0
-22 -145 0
-21 -146 0
-22 -147 0
-25 -154 0
-22 -154 0
-21 -156 0
-25 -157 0
-24 -165 0
-25 -165 0
-25 -169 0
-24 -168 0
-25 -173 0
-25 -171 0
-30 -31 0
-26 -34 0
-27 -40 0
-29 -39 0
-30 -44 0
-26 -43 0
-28 -50 0
-26 -47 0
-26 -52 0
-30 -54 0
-27 -66 0
-28 -68 0
-28 -73 0
-30 -74 0
-27 -80 0
-30 -77 0
-28 -81 0
-26 -83 0
-27 -90 0
-30 -89 0
-27 -93 0
-26 -95 0
-29 -100 0
-30 -97 0
-30 -105 0
-30 -104 0
-26 -108 0
-26 -106 0
-26 -111 0
-26 -112 0
-26 -125 0
-28 -123 0
-29 -130 0
-28 -129 0
-28 -132 0
-27 -132 0
-29 -136 0
-26 -138 0
-27 -141 0
-27 -145 0
-29 -149 0
-29 -150 0
-26 -152 0
-28 -152 0
-28 -157 0
-29 -160 0
-30 -163 0
-29 -161 0
-28 -169 0
-29 -167 0
-27 -175 0
-28 -174 0
-35 -36 0
-33 -39 0
-33 -45 0
-32 -45 0
-34 -49 0
-33 -49 0
-31 -52 0
-32 -52 0
-35 -60 0
-31 -56 0
-35 -61 0
-35 -63 0
-32 -68 0
-33 -67 0
-34 -72 0
-35 -75 0
-34 -77 0
-35 -76 0
-35 -83 0
-31 -82 0
-31 -89 0
-35 -89 0
-31 -93 0
-33 -95 0
-32 -102 0
-33 -101 0
-33 -107 0
-35 -110 0
-33 -114 0
-32 -115 0
-35 -118 0
-32 -116 0
-35 -122 0
-32 -123 0
-34 -127 0
-33 -130 0
-35 -133 0
-35 -135 0
-35 -140 0
-34 -139 0
-35 -143 0
-34 -144 0
-34 -148 0
-35 -150 0
-32 -152 0
-32 -154 0
-34 -157 0
-35 -159 0
-35 -161 0
-34 -165 0
-33 -167 0
-33 -170 0
-32 -171 0
-31 -171 0
-39 -48 0
-40 -50 0
-40 -54 0
-36 -55 0
-37 -58 0
-39 -59 0
-37 -64 0
-38 -61 0
-37 -70 0
-38 -70 0
-40 -74 0
-36 -74 0
-37 -79 0
-36 -78 0
-37 -91 0
-36 -91 0
-37 -96 0
-40 -100 0
-36 -105 0
-38 -104 0
-37 -109 0
-40 -106 0
-36 -113 0
-40 -111 0
-40 -117 0
-36 -116 0
-37 -122 0
-36 -122 0
-36 -129 0
-40 -126 0
-36 -134 0
-40 -134 0
-40 -137 0
-38 -138 0
-40 -154 0
-40 -151 0
-39 -157 0
-37 -159 0
-37 -164 0
-38 -164 0
-38 -169 0
-40 -169 0
-38 -171 0
-38 -173 0
-43 -46 0
-41 -49 0
-41 -57 0
-42 -58 0
-44 -62 0
-42 -62 0
-44 -69 0
-44 -67 0
-41 -74 0
-44 -74 0
-45 -78 0
-44 -77 0
-44 -82 0
-43 -84 0
-43 -88 0
-42 -88 0
-45 -95 0
-41 -91 0
-44 -96 0
-41 -96 0
-41 -101 0
-43 -102 0
-41 -114 0
-42 -113 0
-44 -116 0
-44 -117 0
-45 -123 0
-43 -125 0
-42 -127 0
-41 -130 0
-42 -135 0
-41 -132 0
-44 -143 0
-44 -142 0
-41 -148 0
-43 -147 0
-41 -151 0
-42 -153 0
-41 -157 0
-44 -160 0
-42 -165 0
-41 -165 0
-41 -168 0
-45 -167 0
-43 -175 0
-41 -172 0
-50 -55 0
-49 -55 0
-47 -57 0
-48 -60 0
-50 -63 0
-48 -63 0
-49 -67 0
-50 -68 0
-48 -72 0
-47 -75 0
-46 -79 0
-49 -76 0
-49 -83 0
-48 -84 0
-49 -89 0
-49 -87 0
-49 -93 0
-46 -92 0
-47 -100 0
-48 -96 0
-46 -104 0
-48 -104 0
-49 -109 0
-46 -110 0
-46 -113 0
-49 -111 0
-46 -120 0
-48 -118 0
-49 -123 0
-50 -121 0
-50 -126 0
-46 -128 0
-47 -133 0
-49 -132 0
-48 -137 0
-49 -140 0
-50 -144 0
-50 -142 0
-49 -148 0
-48 -146 0
-48 -155 0
-46 -153 0
-47 -157 0
-48 -160 0
-48 -170 0
-50 -170 0
-47 -171 0
-46 -174 0
-55 -56 0
-51 -59 0
-53 -61 0
-54 -62 0
-52 -70 0
-55 -69 0
-53 -72 0
-55 -73 0
-52 -78 0
-54 -77 0
-51 -84 0
-53 -81 0
-55 -91 0
-51 -92 0
-53 -99 0
-54 -98 0
-54 -101 0
-52 -105 0
-55 -109 0
-55 -108 0
-55 -112 0
-52 -111 0
-51 -119 0
-51 -117 0
-52 -122 0
-52 -124 0
-53 -126 0
-52 -129 0
-54 -133 0
-53 -132 0
-55 -137 0
-51 -138 0
-52 -141 0
-54 -141 0
-51 -146 0
-51 -147 0
-55 -158 0
-53 -158 0
-52 -162 0
-54 -162 0
-54 -170 0
-52 -168 0
-54 -172 0
-51 -175 0
-60 -64 0
-58 -63 0
-58 -68 0
-58 -67 0
-60 -72 0
-57 -72 0
-56 -79 0
-59 -78 0
-60 -81 0
-57 -83 0
-57 -86 0
-56 -90 0
-56 -93 0
-57 -91 0
-59 -96 0
-59 -100 0
-59 -104 0
-59 -101 0
-58 -110 0
-60 -110 0
-58 -121 0
-57 -123 0
-57 -127 0
-58 -130 0
-60 -132 0
-59 -135 0
-60 -138 0
-58 -136 0
-59 -148 0
-56 -146 0
-58 -152 0
-56 -153 0
-57 -159 0
-59 -157 0
-59 -163 0
-58 -165 0
-58 -170 0
-56 -169 0
-57 -172 0
-57 -175 0
-62 -70 0
-64 -69 0
-65 -73 0
-64 -75 0
-65 -76 0
-62 -77 0
-62 -83 0
-63 -83 0
-64 -86 0
-64 -89 0
-65 -94 0
-64 -94 0
-64 -100 0
-64 -97 0
-63 -103 0
-63 -105 0
-62 -110 0
-62 -108 0
-65 -115 0
-62 -111 0
-62 -124 0
-64 -125 0
-65 -129 0
-64 -128 0
-63 -134 0
-64 -133 0
-61 -139 0
-64 -136 0
-61 -142 0
-64 -144 0
-64 -149 0
-63 -150 0
-61 -151 0
-65 -155 0
-64 -158 0
-63 -159 0
-64 -170 0
-62 -168 0
-61 -174 0
-64 -172 0
-68 -74 0
-68 -75 0
-70 -78 0
-68 -79 0
-67 -82 0
-66 -82 0
-66 -90 0
-70 -89 0
-66 -94 0
-69 -95 0
-66 -99 0
-68 -96 0
-69 -101 0
-67 -101 0
-69 -107 0
-68 -107 0
-70 -113 0
-69 -113 0
-70 -116 0
-66 -117 0
-68 -122 0
-69 -123 0
-70 -130 0
-67 -127 0
-68 -134 0
-66 -135 0
-70 -139 0
-67 -140 0
-67 -144 0
-67 -143 0
-66 -149 0
-68 -149 0
-69 -152 0
-67 -152 0
-69 -156 0
-66 -158 0
-69 -165 0
-69 -161 0
-68 -170 0
-66 -166 0
-67 -173 0
-69 -172 0
-75 -77 0
-73 -79 0
-72 -84 0
-72 -85 0
-75 -89 0
-73 -87 0
-74 -91 0
-71 -93 0
-73 -100 0
-73 -99 0
-71 -105 0
-75 -102 0
-71 -115 0
-73 -111 0
-74 -119 0
-72 -119 0
-73 -121 0
-74 -125 0
-73 -135 0
-71 -131 0
-72 -139 0
-75 -140 0
-73 -145 0
-72 -142 0
-74 -150 0
-73 -149 0
-75 -151 0
-71 -153 0
-74 -157 0
-75 -160 0
-75 -164 0
-75 -161 0
-74 -170 0
-72 -169 0
-75 -172 0
-74 -171 0
-79 -85 0
-79 -84 0
-80 -86 0
-79 -90 0
-77 -95 0
-77 -93 0
-79 -100 0
-80 -100 0
-80 -109 0
-79 -108 0
-76 -113 0
-76 -111 0
-80 -117 0
-79 -116 0
-80 -123 0
-78 -125 0
-78 -130 0
-79 -128 0
-79 -132 0
-76 -131 0
-78 -139 0
-77 -136 0
-77 -141 0
-80 -144 0
-76 -148 0
-77 -146 0
-78 -153 0
-80 -155 0
-76 -157 0
-79 -157 0
-78 -164 0
-76 -161 0
-80 -169 0
-76 -168 0
-79 -172 0
-78 -171 0
-85 -89 0
-84 -87 0
-83 -96 0
-84 -96 0
-82 -107 0
-85 -110 0
-84 -120 0
-81 -118 0
-82 -123 0
-82 -125 0
-84 -126 0
-81 -127 0
-81 -132 0
-83 -134 0
-83 -138 0
-82 -139 0
-81 -148 0
-84 -150 0
-82 -154 0
-82 -153 0
-82 -157 0
-83 -160 0
-83 -165 0
-81 -163 0
-82 -168 0
-84 -166 0
-81 -173 0
-81 -175 0
-87 -93 0
-90 -93 0
-87 -98 0
-90 -98 0
-86 -105 0
-90 -105 0
-88 -107 0
-87 -106 0
-88 -112 0
-86 -114 0
-86 -120 0
-88 -116 0
-86 -123 0
-86 -124 0
-87 -134 0
-88 -133 0
-86 -140 0
-87 -138 0
-86 -141 0
-87 -142 0
-87 -149 0
-88 -149 0
-90 -153 0
-87 -154 0
-87 -159 0
-87 -160 0
-87 -163 0
-90 -165 0
-89 -166 0
-87 -167 0
-88 -175 0
-89 -171 0
-91 -100 0
-94 -100 0
-91 -101 0
-92 -102 0
-92 -115 0
-93 -115 0
-93 -116 0
-93 -117 0
-95 -121 0
-92 -123 0
-94 -129 0
-93 -127 0
-92 -132 0
-91 -135 0
-95 -139 0
-93 -136 0
-92 -148 0
-93 -148 0
-92 -155 0
-93 -153 0
-92 -164 0
-93 -164 0
-91 -166 0
-92 -169 0
-95 -172 0
-92 -172 0
-98 -102 0
-99 -105 0
-98 -109 0
-96 -110 0
-97 -120 0
-97 -116 0
-100 -123 0
-97 -125 0
-100 -126 0
-100 -129 0
-97 -133 0
-98 -132 0
-96 -137 0
-96 -139 0
-98 -145 0
-98 -143 0
-97 -147 0
-96 -146 0
-100 -155 0
-100 -151 0
-98 -160 0
-99 -157 0
-97 -162 0
-98 -161 0
-100 -175 0
-99 -173 0
-103 -109 0
-101 -109 0
-103 -124 0
-104 -125 0
-101 -126 0
-104 -127 0
-105 -131 0
-101 -135 0
-101 -138 0
-102 -140 0
-105 -143 0
-105 -145 0
-103 -147 0
-104 -148 0
-102 -153 0
-103 -151 0
-103 -160 0
-103 -156 0
-105 -162 0
-102 -161 0
-103 -168 0
-102 -168 0
-102 -174 0
-103 -173 0
-108 -114 0
-110 -113 0
-109 -120 0
-106 -120 0
-108 -123 0
-106 -125 0
-107 -130 0
-108 -128 0
-108 -134 0
-106 -134 0
-108 -137 0
-107 -136 0
-108 -143 0
-110 -144 0
-109 -150 0
-109 -148 0
-106 -153 0
-108 -154 0
-107 -156 0
-107 -158 0
-107 -164 0
-107 -162 0
-107 -168 0
-109 -169 0
-107 -173 0
-110 -174 0
-115 -118 0
-111 -116 0
-113 -124 0
-113 -125 0
-112 -140 0
-115 -139 0
-112 -143 0
-113 -144 0
-113 -146 0
-113 -150 0
-113 -153 0
-114 -153 0
-112 -160 0
-111 -160 0
-115 -161 0
-112 -165 0
-111 -167 0
-111 -166 0
-113 -171 0
-111 -173 0
-120 -124 0
-119 -124 0
-119 -129 0
-117 -127 0
-116 -135 0
-117 -132 0
-116 -139 0
-118 -139 0
-118 -144 0
-120 -142 0
-120 -146 0
-116 -148 0
-117 -152 0
-117 -153 0
-117 -159 0
-120 -160 0
-116 -165 0
-118 -162 0
-119 -166 0
-118 -170 0
-125 -128 0
-124 -129 0
-124 -132 0
-122 -134 0
-125 -140 0
-125 -139 0
-123 -142 0
-125 -143 0
-123 -149 0
-122 -148 0
-125 -154 0
-121 -154 0
-125 -159 0
-125 -158 0
-124 -162 0
-125 -165 0
-124 -170 0
-123 -168 0
-121 -172 0
-122 -172 0
-129 -131 0
-126 -132 0
-130 -141 0
-127 -141 0
-126 -148 0
-127 -146 0
-129 -154 0
-126 -153 0
-130 -159 0
-126 -157 0
-126 -163 0
-130 -163 0
-127 -166 0
-130 -167 0
-132 -140 0
-131 -139 0
-135 -141 0
-131 -142 0
-132 -150 0
-135 -149 0
-133 -155 0
-131 -151 0
-133 -163 0
-131 -162 0
-132 -170 0
-135 -168 0
-133 -173 0
-132 -174 0
-139 -142 0
-137 -143 0
-138 -146 0
-140 -148 0
-140 -152 0
-140 -154 0
-139 -160 0
-140 -160 0
-136 -162 0
-140 -161 0
-138 -170 0
-137 -168 0
-139 -172 0
-136 -172 0
-145 -148 0
-144 -149 0
-143 -158 0
-144 -158 0
-144 -166 0
-141 -168 0
-144 -175 0
-142 -174 0
-149 -158 0
-150 -157 0
-147 -163 0
-147 -162 0
-147 -167 0
-149 -167 0
-148 -175 0
-149 -175 0
-153 -157 0
-155 -160 0
-154 -164 0
-153 -162 0
-154 -167 0
-153 -166 0
-152 -174 0
-155 -175 0
-157 -161 0
-156 -161 0
-156 -166 0
-156 -168 0
-156 -174 0
-160 -175 0
-163 -167 0
-162 -169 0
-161 -174 0
-165 -172 0
-167 -171 0
-167 -173 0
